Route #1: 1 29 30 33 14 56 61 1
Route #2: 1 49 6 17 41 4 32 1
Route #3: 1 45 5 50 57 60 1
Route #4: 1 16 48 10 31 9 47 26 12 1
Route #5: 1 11 38 43 62 23 35 40 1
Route #6: 1 21 37 8 28 2 51 19 1
Route #7: 1 34 27 36 7 52 22 53 1
Route #8: 1 20 3 63 42 15 59 55 13 25 1
Route #9: 1 18 44 24 39 58 54 1
Route #10: 1 46 1
cost 1766.446741262938
